  1  1.403  1.403    -3.82   -14.17
  2  1.178  1.178    28.46     7.43
  4  1.665  1.665    12.35   -10.49
  5  0.967  0.967     8.24   -24.16
  6  0.348  0.348    -3.44   -13.99
  7  1.494  1.494     0.00     0.00
  8  1.017  1.017     4.21    14.21
  9  0.554  0.554    18.10    17.27
 10  1.012  1.012    32.40    19.89
 12  0.757  0.757    34.20   -16.49
 16  0.530  0.530    24.24    -7.44
 17  1.261  1.261    44.66   -26.74
 20  0.886  0.886     1.80   -39.30
 24  1.281  1.281    56.38   -38.03
 26  1.360  1.360    63.19    -9.49
 29  1.124  1.124    47.24    25.16
 31  0.836  0.836    22.48    30.23
 32  0.974  0.974     7.60    28.30
 33  0.985  0.985    -6.84    25.76
 34  1.012  1.012   -10.64    11.20
 35  0.991  0.991   -14.54    -3.26
 37  0.364  0.364    -8.64   -29.35
